100
14 91
28 62
28 41
16 6
7 37
20 74
13 78
29 17
7 53
11 42
5 69
4 32
11 40
28 42
3 56
29 7
11 79
0 77
24 89
9 29
13 13
11 99
9 9
12 70
24 96
17 44
6 70
20 33
26 89
7 41
10 81
0 97
26 21
22 32
1 62
5 41
23 17
26 19
11 62
10 88
24 6
28 27
3 12
2 90
21 89
20 51
8 31
14 82
4 27
9 19
22 76
5 17
16 5
9 71
1 77
25 29
9 48
10 63
26 22
11 14
6 37
11 33
27 66
3 77
16 81
29 35
4 9
16 54
27 92
9 86
7 41
9 57
12 76
28 1
16 78
26 61
16 34
20 89
16 13
15 46
13 15
4 56
3 37
29 42
8 40
21 50
27 96
24 22
4 80
10 23
24 92
26 26
27 31
16 78
24 34
9 91
0 9
16 25
17 63
3 75
